NAME : portgen-40-203
COMMENT : portgen N=40, seed=203
TYPE : TSP
DIMENSION : 40
EDGE_WEIGHT_TYPE : EUC_2D
NODE_COORD_SECTION
1 1832 2767
2 3138 2085
3 752 2483
4 924 562
5 1022 84
6 1100 628
7 2435 877
8 2951 177
9 247 2147
10 2348 1257
11 688 1021
12 1630 1052
13 3116 2026
14 709 774
15 1869 3046
16 2948 771
17 622 725
18 1648 1143
19 1868 71
20 721 2520
21 1869 3096
22 1347 2391
23 2439 1213
24 1926 857
25 1761 1356
26 1156 1841
27 2988 216
28 162 1061
29 2145 2413
30 437 2772
31 615 852
32 3003 1664
33 1378 1166
34 2443 43
35 1600 1738
36 1413 2552
37 386 992
38 100 2010
39 1195 1413
40 889 2054
